<number of tasks>
30

<cycle time>
41

<task times>
1 8
2 7
3 19
4 10
5 2
6 6
7 14
8 10
9 1
10 4
11 14
12 15
13 5
14 12
15 9
16 10
17 2
18 10
19 18
20 16
21 21
22 14
23 16
24 7
25 17
26 9
27 25
28 7
29 14
30 2

<precedence relations>
1,4
1,5
2,11
2,12
3,16
3,17
4,7
5,6
6,7
7,8
8,9
9,26
10,24
12,13
13,14
14,15
14,20
15,22
16,20
17,18
18,19
20,21
20,24
21,22
22,23
23,27
24,25
25,26
26,27
27,28
27,29
29,30

<setup times forward>
1,2:4
1,3:4
1,4:2
1,5:5
1,10:5
1,12:4
1,15:5
1,16:5
1,18:5
1,19:7
1,20:2
1,21:3
1,22:6
1,23:4
1,24:3
1,25:6
2,1:4
2,4:2
2,5:1
2,6:1
2,7:2
2,8:1
2,9:2
2,10:1
2,11:4
2,16:1
2,17:4
2,18:1
2,19:3
3,1:4
3,4:2
3,5:1
3,6:1
3,7:2
3,8:1
3,9:2
3,10:1
3,11:4
3,13:4
3,14:4
3,15:1
3,16:1
3,17:4
4,2:2
4,3:2
4,5:3
4,6:3
4,10:3
4,11:2
4,12:2
4,13:2
4,14:2
4,15:3
4,16:3
4,17:2
4,18:3
4,19:5
4,21:1
4,22:4
4,23:2
4,24:1
4,25:4
5,2:1
5,3:1
5,4:3
5,11:5
5,12:1
5,13:5
5,14:5
5,17:5
5,19:2
5,20:3
5,21:2
5,22:1
5,23:1
5,24:2
5,25:1
6,2:1
6,3:1
6,4:3
6,7:3
6,11:5
6,12:1
6,13:5
6,14:5
6,17:5
6,19:2
6,20:3
6,21:2
6,22:1
6,23:1
6,24:2
6,25:1
7,2:2
7,3:2
7,8:1
7,10:3
7,11:2
7,12:2
7,13:2
7,14:2
7,15:3
7,16:3
7,17:2
7,18:3
7,19:5
7,21:1
7,22:4
7,23:2
7,24:1
7,25:4
8,2:1
8,3:1
8,9:3
8,10:2
8,11:3
8,12:1
8,13:3
8,14:3
8,15:2
8,16:2
8,17:3
8,18:2
8,19:4
8,20:1
8,22:3
8,23:1
8,25:3
9,2:2
9,3:2
9,10:1
9,11:6
9,12:2
9,13:6
9,14:6
9,15:1
9,16:1
9,17:6
9,18:1
9,19:1
9,20:4
9,21:3
9,23:2
9,24:3
10,1:5
10,2:1
10,3:1
10,4:3
10,7:3
10,8:2
10,9:1
10,11:5
10,12:1
10,13:5
10,14:5
10,17:5
10,19:2
10,20:3
10,21:2
10,22:1
10,23:1
10,24:2
11,3:4
11,4:2
11,5:5
11,6:5
11,7:2
11,8:3
11,9:6
11,10:5
11,12:4
11,15:5
11,16:5
11,18:5
11,19:7
11,20:2
11,21:3
11,22:6
11,23:4
11,24:3
11,25:6
11,26:6
11,27:4
11,28:7
11,29:7
11,30:7
12,1:4
12,4:2
12,5:1
12,6:1
12,7:2
12,8:1
12,9:2
12,10:1
12,11:4
12,13:4
12,16:1
12,17:4
12,18:1
12,19:3
13,3:4
13,4:2
13,5:5
13,6:5
13,7:2
13,8:3
13,9:6
13,10:5
13,16:5
13,18:5
13,19:7
14,3:4
14,4:2
14,5:5
14,6:5
14,7:2
14,8:3
14,9:6
14,10:5
14,15:5
14,16:5
14,18:5
14,19:7
14,20:2
15,1:5
15,3:1
15,4:3
15,7:3
15,8:2
15,9:1
15,11:5
15,17:5
15,19:2
15,20:3
15,21:2
15,22:1
15,24:2
15,25:1
15,26:1
16,1:5
16,2:1
16,4:3
16,7:3
16,8:2
16,9:1
16,11:5
16,12:1
16,13:5
16,14:5
16,17:5
16,19:2
16,20:3
17,2:4
17,4:2
17,5:5
17,6:5
17,7:2
17,8:3
17,9:6
17,10:5
17,12:4
17,15:5
17,16:5
17,18:5
17,20:2
17,21:3
17,22:6
17,23:4
17,24:3
17,25:6
17,26:6
17,27:4
17,28:7
17,29:7
17,30:7
18,1:5
18,2:1
18,4:3
18,7:3
18,8:2
18,9:1
18,11:5
18,12:1
18,13:5
18,14:5
18,19:2
18,20:3
18,21:2
18,22:1
18,23:1
18,24:2
18,25:1
18,26:1
18,27:1
18,28:2
18,29:2
18,30:2
19,1:7
19,2:3
19,4:5
19,5:2
19,6:2
19,7:5
19,8:4
19,9:1
19,10:2
19,11:7
19,12:3
19,13:7
19,14:7
19,15:2
19,16:2
19,20:5
19,21:4
19,22:1
19,23:3
19,24:4
19,25:1
19,26:1
19,27:3
20,1:2
20,5:3
20,6:3
20,8:1
20,9:4
20,10:3
20,11:2
20,15:3
20,17:2
20,18:3
20,19:5
20,21:1
20,24:1
21,1:3
21,4:1
21,5:2
21,6:2
21,7:1
21,9:3
21,10:2
21,11:3
21,15:2
21,17:3
21,18:2
21,19:4
21,22:3
21,25:3
21,26:3
22,1:6
22,4:4
22,5:1
22,6:1
22,7:4
22,8:3
22,10:1
22,11:6
22,17:6
22,18:1
22,19:1
22,23:2
22,24:3
23,1:4
23,4:2
23,5:1
23,6:1
23,7:2
23,8:1
23,9:2
23,10:1
23,11:4
23,17:4
23,18:1
23,19:3
23,24:1
23,25:2
23,26:2
24,1:3
24,4:1
24,5:2
24,6:2
24,7:1
24,9:3
24,11:3
24,15:2
24,17:3
24,18:2
24,19:4
24,22:3
24,23:1
24,25:3
25,1:6
25,4:4
25,5:1
25,6:1
25,7:4
25,8:3
25,11:6
25,15:1
25,17:6
25,18:1
25,19:1
25,21:3
25,23:2
26,11:6
26,15:1
26,17:6
26,18:1
26,19:1
26,21:3
26,23:2
26,27:2
27,11:4
27,17:4
27,18:1
27,19:3
27,28:3
27,29:3
28,11:7
28,17:7
28,18:2
29,11:7
29,17:7
29,18:2
30,11:7
30,17:7
30,18:2

<setup times backward>
1,2:4
1,3:4
1,10:5
1,12:4
1,15:5
1,16:5
1,18:5
1,19:7
1,20:2
1,21:3
1,22:6
1,23:4
1,24:3
1,25:6
2,5:1
2,6:1
2,9:2
2,10:1
2,16:1
2,18:1
2,19:3
3,5:1
3,6:1
3,9:2
3,10:1
3,15:1
4,2:2
4,3:2
4,5:3
4,6:3
4,10:3
4,12:2
4,15:3
4,16:3
4,18:3
4,19:5
4,21:1
4,22:4
4,23:2
4,24:1
4,25:4
5,19:2
5,22:1
5,25:1
6,19:2
6,22:1
6,25:1
7,2:2
7,3:2
7,5:3
7,6:3
7,10:3
7,12:2
7,15:3
7,16:3
7,18:3
7,19:5
7,21:1
7,22:4
7,23:2
7,24:1
7,25:4
8,2:1
8,3:1
8,5:2
8,6:2
8,10:2
8,12:1
8,15:2
8,16:2
8,18:2
8,19:4
8,22:3
8,23:1
8,25:3
9,19:1
10,9:1
10,19:2
10,22:1
11,2:4
11,3:4
11,4:2
11,5:5
11,6:5
11,7:2
11,8:3
11,9:6
11,10:5
11,12:4
11,15:5
11,16:5
11,18:5
11,19:7
11,20:2
11,21:3
11,22:6
11,23:4
11,24:3
11,25:6
11,26:6
11,27:4
11,28:7
11,29:7
11,30:7
12,5:1
12,6:1
12,9:2
12,10:1
12,16:1
12,18:1
12,19:3
13,2:4
13,3:4
13,4:2
13,5:5
13,6:5
13,7:2
13,8:3
13,9:6
13,10:5
13,12:4
13,16:5
13,18:5
13,19:7
14,2:4
14,3:4
14,4:2
14,5:5
14,6:5
14,7:2
14,8:3
14,9:6
14,10:5
14,12:4
14,16:5
14,18:5
14,19:7
15,9:1
15,19:2
15,25:1
15,26:1
16,9:1
16,19:2
17,2:4
17,3:4
17,4:2
17,5:5
17,6:5
17,7:2
17,8:3
17,9:6
17,10:5
17,12:4
17,15:5
17,16:5
17,20:2
17,21:3
17,22:6
17,23:4
17,24:3
17,25:6
17,26:6
17,27:4
17,28:7
17,29:7
17,30:7
18,9:1
18,22:1
18,25:1
18,26:1
18,28:2
18,29:2
18,30:2
20,2:2
20,3:2
20,5:3
20,6:3
20,8:1
20,9:4
20,10:3
20,12:2
20,15:3
20,16:3
20,18:3
20,19:5
21,2:1
21,3:1
21,5:2
21,6:2
21,9:3
21,10:2
21,12:1
21,15:2
21,16:2
21,18:2
21,19:4
21,25:3
21,26:3
22,19:1
23,5:1
23,6:1
23,9:2
23,10:1
23,15:1
23,16:1
23,18:1
23,19:3
23,22:2
23,25:2
23,26:2
24,2:1
24,3:1
24,5:2
24,6:2
24,9:3
24,10:2
24,12:1
24,15:2
24,16:2
24,18:2
24,19:4
24,22:3
24,23:1
25,19:1
26,19:1
27,5:1
27,6:1
27,9:2
27,10:1
27,15:1
27,16:1
27,18:1
27,19:3
27,22:2
27,25:2
27,26:2

<end>

<optimal SALBP-1 value>
8


<rand seed>
467321153

